97 65 50 81 9 33 54 71 84 92 96 95 89 78 63 44 23 94 56 18 69 19 58 93 21 24 51 47 39 1 0 3 98 67 15 29 49 5 14 91 73 43 31 2 25 62 36 74 8 80 17 12 10 53 40 60 27 79 32 26 99 46 72 37 42 38 55 35 57 41 16 4 22 6 7 82 61 70 75 52 76 87 64 83 11 68 13 34 66 90 30 86 77 85 45 88 59 48 20 28 

